NAME          DCAP_2_4_3_500_SS496
ROWS
 N  OBJ
 L  CON1
 L  CON2
 L  CON3
 L  CON4
 L  CON5
 L  CON6
 L  CON7
 L  CON8
 L  CON9
 L  CON10
 L  CON11
 L  CON12
 E  CON13
 E  CON14
 E  CON15
 E  CON16
 E  CON17
 E  CON18
 E  CON19
 E  CON20
 E  CON21
 E  CON22
 E  CON23
 E  CON24
COLUMNS
    x[1,1]    OBJ       6.180167      CON1      1.000000    
    x[1,1]    CON7      -1.000000     CON8      -1.000000   
    x[1,1]    CON9      -1.000000   
    x[1,2]    OBJ       6.563535      CON2      1.000000    
    x[1,2]    CON8      -1.000000     CON9      -1.000000   
    x[1,3]    OBJ       7.443064      CON3      1.000000    
    x[1,3]    CON9      -1.000000   
    x[2,1]    OBJ       6.732585      CON4      1.000000    
    x[2,1]    CON10     -1.000000     CON11     -1.000000   
    x[2,1]    CON12     -1.000000   
    x[2,2]    OBJ       5.039546      CON5      1.000000    
    x[2,2]    CON11     -1.000000     CON12     -1.000000   
    x[2,3]    OBJ       6.054841      CON6      1.000000    
    x[2,3]    CON12     -1.000000   
    MARKER    'MARKER'                'INTORG'
    u[1,1]    OBJ       48.076654     CON1      -1.000000   
    u[1,2]    OBJ       20.066487     CON2      -1.000000   
    u[1,3]    OBJ       32.230043     CON3      -1.000000   
    u[2,1]    OBJ       49.996186     CON4      -1.000000   
    u[2,2]    OBJ       49.466655     CON5      -1.000000   
    u[2,3]    OBJ       27.484319     CON6      -1.000000   
    y[1,1,1]  OBJ       5.180339      CON7      1.146437    
    y[1,1,1]  CON13     1.000000    
    y[1,1,2]  OBJ       7.414107      CON8      1.364239    
    y[1,1,2]  CON14     1.000000    
    y[1,1,3]  OBJ       9.430833      CON9      0.603348    
    y[1,1,3]  CON15     1.000000    
    y[1,2,1]  OBJ       5.948986      CON7      1.448751    
    y[1,2,1]  CON16     1.000000    
    y[1,2,2]  OBJ       9.293047      CON8      0.940841    
    y[1,2,2]  CON17     1.000000    
    y[1,2,3]  OBJ       9.244509      CON9      0.682894    
    y[1,2,3]  CON18     1.000000    
    y[1,3,1]  OBJ       8.287468      CON7      1.165052    
    y[1,3,1]  CON19     1.000000    
    y[1,3,2]  OBJ       9.625955      CON8      1.122801    
    y[1,3,2]  CON20     1.000000    
    y[1,3,3]  OBJ       8.393352      CON9      0.631794    
    y[1,3,3]  CON21     1.000000    
    y[1,4,1]  OBJ       6.052012      CON7      0.538067    
    y[1,4,1]  CON22     1.000000    
    y[1,4,2]  OBJ       9.047412      CON8      1.390284    
    y[1,4,2]  CON23     1.000000    
    y[1,4,3]  OBJ       8.110038      CON9      1.364289    
    y[1,4,3]  CON24     1.000000    
    y[2,1,1]  OBJ       8.966175      CON10     1.146437    
    y[2,1,1]  CON13     1.000000    
    y[2,1,2]  OBJ       9.520284      CON11     1.364239    
    y[2,1,2]  CON14     1.000000    
    y[2,1,3]  OBJ       9.709781      CON12     0.603348    
    y[2,1,3]  CON15     1.000000    
    y[2,2,1]  OBJ       6.145784      CON10     1.448751    
    y[2,2,1]  CON16     1.000000    
    y[2,2,2]  OBJ       8.513542      CON11     0.940841    
    y[2,2,2]  CON17     1.000000    
    y[2,2,3]  OBJ       7.985554      CON12     0.682894    
    y[2,2,3]  CON18     1.000000    
    y[2,3,1]  OBJ       7.990612      CON10     1.165052    
    y[2,3,1]  CON19     1.000000    
    y[2,3,2]  OBJ       8.691780      CON11     1.122801    
    y[2,3,2]  CON20     1.000000    
    y[2,3,3]  OBJ       6.192338      CON12     0.631794    
    y[2,3,3]  CON21     1.000000    
    y[2,4,1]  OBJ       7.158726      CON10     0.538067    
    y[2,4,1]  CON22     1.000000    
    y[2,4,2]  OBJ       6.088863      CON11     1.390284    
    y[2,4,2]  CON23     1.000000    
    y[2,4,3]  OBJ       5.069234      CON12     1.364289    
    y[2,4,3]  CON24     1.000000    
    z[1,1]    OBJ       537.249285    CON13     1.000000    
    z[1,2]    OBJ       993.489103    CON14     1.000000    
    z[1,3]    OBJ       577.529780    CON15     1.000000    
    z[2,1]    OBJ       586.927724    CON16     1.000000    
    z[2,2]    OBJ       580.501941    CON17     1.000000    
    z[2,3]    OBJ       633.861727    CON18     1.000000    
    z[3,1]    OBJ       597.360368    CON19     1.000000    
    z[3,2]    OBJ       884.244279    CON20     1.000000    
    z[3,3]    OBJ       883.202901    CON21     1.000000    
    z[4,1]    OBJ       987.114635    CON22     1.000000    
    z[4,2]    OBJ       637.393103    CON23     1.000000    
    z[4,3]    OBJ       989.122831    CON24     1.000000    
    MARKER    'MARKER'                 'INTEND'
RHS
    RHS       CON1      -0.000000     CON2      -0.000000   
    RHS       CON3      -0.000000     CON4      -0.000000   
    RHS       CON5      -0.000000     CON6      -0.000000   
    RHS       CON7      -0.000000     CON8      -0.000000   
    RHS       CON9      -0.000000     CON10     -0.000000   
    RHS       CON11     -0.000000     CON12     -0.000000   
    RHS       CON13     1.000000      CON14     1.000000    
    RHS       CON15     1.000000      CON16     1.000000    
    RHS       CON17     1.000000      CON18     1.000000    
    RHS       CON19     1.000000      CON20     1.000000    
    RHS       CON21     1.000000      CON22     1.000000    
    RHS       CON23     1.000000      CON24     1.000000    
BOUNDS
 BV BOUND     u[1,1]  
 BV BOUND     u[1,2]  
 BV BOUND     u[1,3]  
 BV BOUND     u[2,1]  
 BV BOUND     u[2,2]  
 BV BOUND     u[2,3]  
 BV BOUND     y[1,1,1]
 BV BOUND     y[1,1,2]
 BV BOUND     y[1,1,3]
 BV BOUND     y[1,2,1]
 BV BOUND     y[1,2,2]
 BV BOUND     y[1,2,3]
 BV BOUND     y[1,3,1]
 BV BOUND     y[1,3,2]
 BV BOUND     y[1,3,3]
 BV BOUND     y[1,4,1]
 BV BOUND     y[1,4,2]
 BV BOUND     y[1,4,3]
 BV BOUND     y[2,1,1]
 BV BOUND     y[2,1,2]
 BV BOUND     y[2,1,3]
 BV BOUND     y[2,2,1]
 BV BOUND     y[2,2,2]
 BV BOUND     y[2,2,3]
 BV BOUND     y[2,3,1]
 BV BOUND     y[2,3,2]
 BV BOUND     y[2,3,3]
 BV BOUND     y[2,4,1]
 BV BOUND     y[2,4,2]
 BV BOUND     y[2,4,3]
 BV BOUND     z[1,1]  
 BV BOUND     z[1,2]  
 BV BOUND     z[1,3]  
 BV BOUND     z[2,1]  
 BV BOUND     z[2,2]  
 BV BOUND     z[2,3]  
 BV BOUND     z[3,1]  
 BV BOUND     z[3,2]  
 BV BOUND     z[3,3]  
 BV BOUND     z[4,1]  
 BV BOUND     z[4,2]  
 BV BOUND     z[4,3]  
ENDATA
